
Gurobi 8.1.1 (win64, Python) logging started 10/24/19 12:31:32

Academic license - for non-commercial use only
Optimize a model with 5 rows, 6 columns and 12 nonzeros
Variable types: 0 continuous, 6 integer (0 binary)
Coefficient statistics:
  Matrix range     [1e+00, 1e+00]
  Objective range  [3e+00, 7e+00]
  Bounds range     [0e+00, 0e+00]
  RHS range        [8e+00, 2e+01]
Presolve removed 5 rows and 6 columns
Presolve time: 0.02s
Presolve: All rows and columns removed

Explored 0 nodes (0 simplex iterations) in 0.22 seconds
Thread count was 1 (of 4 available processors)

Solution count 1: 153 

Optimal solution found (tolerance 1.00e-04)
Best objective 1.530000000000e+02, best bound 1.530000000000e+02, gap 0.0000%
Optimize a model with 37 rows, 41 columns and 125 nonzeros
Variable types: 5 continuous, 36 integer (36 binary)
Coefficient statistics:
  Matrix range     [1e+00, 6e+00]
  Objective range  [6e+02, 1e+04]
  Bounds range     [1e+00, 1e+00]
  RHS range        [1e+00, 5e+00]
Found heuristic solution: objective 12616.000000
Presolve removed 5 rows and 6 columns
Presolve time: 0.00s
Presolved: 32 rows, 35 columns, 120 nonzeros
Variable types: 5 continuous, 30 integer (30 binary)

Root relaxation: objective 6.923000e+03, 17 iterations, 0.04 seconds

    Nodes    |    Current Node    |     Objective Bounds      |     Work
 Expl Unexpl |  Obj  Depth IntInf | Incumbent    BestBd   Gap | It/Node Time

     0     0 6923.00000    0    8 12616.0000 6923.00000  45.1%     -    0s
H    0     0                    8444.0000000 6923.00000  18.0%     -    0s
H    0     0                    7940.0000000 6923.00000  12.8%     -    0s
     0     0 7261.00000    0    8 7940.00000 7261.00000  8.55%     -    0s
H    0     0                    7796.0000000 7261.00000  6.86%     -    0s
H    0     0                    7405.0000000 7261.00000  1.94%     -    0s
     0     0 7261.00000    0    8 7405.00000 7261.00000  1.94%     -    0s
H    0     0                    7264.0000000 7261.00000  0.04%     -    0s
     0     0 7261.00000    0    8 7264.00000 7261.00000  0.04%     -    0s
     0     0 infeasible    0      7264.00000 7264.00000  0.00%     -    0s

Cutting planes:
  Learned: 2
  MIR: 2

Explored 1 nodes (37 simplex iterations) in 0.84 seconds
Thread count was 4 (of 4 available processors)

Solution count 6: 7264 7405 7796 ... 12616

Optimal solution found (tolerance 1.00e-04)
Best objective 7.264000000000e+03, best bound 7.264000000000e+03, gap 0.0000%
Optimize a model with 5 rows, 6 columns and 12 nonzeros
Variable types: 0 continuous, 6 integer (0 binary)
Coefficient statistics:
  Matrix range     [1e+00, 1e+00]
  Objective range  [3e+00, 7e+00]
  Bounds range     [0e+00, 0e+00]
  RHS range        [8e+00, 2e+01]
Presolve removed 5 rows and 6 columns
Presolve time: 0.00s
Presolve: All rows and columns removed

Explored 0 nodes (0 simplex iterations) in 0.22 seconds
Thread count was 1 (of 4 available processors)

Solution count 1: 153 

Optimal solution found (tolerance 1.00e-04)
Best objective 1.530000000000e+02, best bound 1.530000000000e+02, gap 0.0000%
Optimize a model with 37 rows, 41 columns and 125 nonzeros
Variable types: 5 continuous, 36 integer (36 binary)
Coefficient statistics:
  Matrix range     [1e+00, 6e+00]
  Objective range  [6e+02, 1e+04]
  Bounds range     [1e+00, 1e+00]
  RHS range        [1e+00, 5e+00]
Found heuristic solution: objective 12616.000000
Presolve removed 5 rows and 6 columns
Presolve time: 0.00s
Presolved: 32 rows, 35 columns, 120 nonzeros
Variable types: 5 continuous, 30 integer (30 binary)

Root relaxation: objective 6.923000e+03, 17 iterations, 0.00 seconds

    Nodes    |    Current Node    |     Objective Bounds      |     Work
 Expl Unexpl |  Obj  Depth IntInf | Incumbent    BestBd   Gap | It/Node Time

     0     0 6923.00000    0    8 12616.0000 6923.00000  45.1%     -    0s
H    0     0                    8444.0000000 6923.00000  18.0%     -    0s
H    0     0                    7940.0000000 6923.00000  12.8%     -    0s
     0     0 7261.00000    0    8 7940.00000 7261.00000  8.55%     -    0s
H    0     0                    7796.0000000 7261.00000  6.86%     -    0s
H    0     0                    7405.0000000 7261.00000  1.94%     -    0s
     0     0 7261.00000    0    8 7405.00000 7261.00000  1.94%     -    0s
H    0     0                    7264.0000000 7261.00000  0.04%     -    0s
     0     0 7261.00000    0    8 7264.00000 7261.00000  0.04%     -    0s
     0     0 infeasible    0      7264.00000 7264.00000  0.00%     -    0s

Cutting planes:
  Learned: 2
  MIR: 2

Explored 1 nodes (37 simplex iterations) in 0.72 seconds
Thread count was 4 (of 4 available processors)

Solution count 6: 7264 7405 7796 ... 12616

Optimal solution found (tolerance 1.00e-04)
Best objective 7.264000000000e+03, best bound 7.264000000000e+03, gap 0.0000%
Optimize a model with 37 rows, 41 columns and 125 nonzeros
Variable types: 5 continuous, 36 integer (36 binary)
Coefficient statistics:
  Matrix range     [1e+00, 6e+00]
  Objective range  [6e+02, 1e+04]
  Bounds range     [1e+00, 1e+00]
  RHS range        [1e+00, 5e+00]
Found heuristic solution: objective 12616.000000
Presolve removed 5 rows and 6 columns
Presolve time: 0.00s
Presolved: 32 rows, 35 columns, 120 nonzeros
Variable types: 5 continuous, 30 integer (30 binary)

Root relaxation: objective 6.923000e+03, 17 iterations, 0.00 seconds

    Nodes    |    Current Node    |     Objective Bounds      |     Work
 Expl Unexpl |  Obj  Depth IntInf | Incumbent    BestBd   Gap | It/Node Time

     0     0 6923.00000    0    8 12616.0000 6923.00000  45.1%     -    0s
H    0     0                    8444.0000000 6923.00000  18.0%     -    0s
H    0     0                    7940.0000000 6923.00000  12.8%     -    0s
     0     0 7261.00000    0    8 7940.00000 7261.00000  8.55%     -    0s
H    0     0                    7796.0000000 7261.00000  6.86%     -    0s
H    0     0                    7405.0000000 7261.00000  1.94%     -    0s
     0     0 7261.00000    0    8 7405.00000 7261.00000  1.94%     -    0s
H    0     0                    7264.0000000 7261.00000  0.04%     -    0s
     0     0 7261.00000    0    8 7264.00000 7261.00000  0.04%     -    0s
     0     0 infeasible    0      7264.00000 7264.00000  0.00%     -    0s

Cutting planes:
  Learned: 2
  MIR: 2

Explored 1 nodes (37 simplex iterations) in 0.47 seconds
Thread count was 4 (of 4 available processors)

Solution count 6: 7264 7405 7796 ... 12616

Optimal solution found (tolerance 1.00e-04)
Best objective 7.264000000000e+03, best bound 7.264000000000e+03, gap 0.0000%
Optimize a model with 37 rows, 41 columns and 125 nonzeros
Variable types: 5 continuous, 36 integer (36 binary)
Coefficient statistics:
  Matrix range     [1e+00, 6e+00]
  Objective range  [6e+02, 1e+04]
  Bounds range     [1e+00, 1e+00]
  RHS range        [1e+00, 5e+00]
Found heuristic solution: objective 12616.000000
Presolve removed 5 rows and 6 columns
Presolve time: 0.00s
Presolved: 32 rows, 35 columns, 120 nonzeros
Variable types: 5 continuous, 30 integer (30 binary)

Root relaxation: objective 6.923000e+03, 17 iterations, 0.00 seconds

    Nodes    |    Current Node    |     Objective Bounds      |     Work
 Expl Unexpl |  Obj  Depth IntInf | Incumbent    BestBd   Gap | It/Node Time

     0     0 6923.00000    0    8 12616.0000 6923.00000  45.1%     -    0s
H    0     0                    8444.0000000 6923.00000  18.0%     -    0s
H    0     0                    7940.0000000 6923.00000  12.8%     -    0s
     0     0 7261.00000    0    8 7940.00000 7261.00000  8.55%     -    0s
H    0     0                    7796.0000000 7261.00000  6.86%     -    0s
H    0     0                    7405.0000000 7261.00000  1.94%     -    0s
     0     0 7261.00000    0    8 7405.00000 7261.00000  1.94%     -    0s
H    0     0                    7264.0000000 7261.00000  0.04%     -    0s
     0     0 7261.00000    0    8 7264.00000 7261.00000  0.04%     -    0s
     0     0 infeasible    0      7264.00000 7264.00000  0.00%     -    0s

Cutting planes:
  Learned: 2
  MIR: 2

Explored 1 nodes (37 simplex iterations) in 0.09 seconds
Thread count was 4 (of 4 available processors)

Solution count 6: 7264 7405 7796 ... 12616

Optimal solution found (tolerance 1.00e-04)
Best objective 7.264000000000e+03, best bound 7.264000000000e+03, gap 0.0000%
Optimize a model with 5 rows, 6 columns and 12 nonzeros
Variable types: 0 continuous, 6 integer (0 binary)
Coefficient statistics:
  Matrix range     [1e+00, 1e+00]
  Objective range  [3e+00, 7e+00]
  Bounds range     [0e+00, 0e+00]
  RHS range        [8e+00, 2e+01]
Presolve removed 5 rows and 6 columns
Presolve time: 0.00s
Presolve: All rows and columns removed

Explored 0 nodes (0 simplex iterations) in 0.16 seconds
Thread count was 1 (of 4 available processors)

Solution count 1: 153 

Optimal solution found (tolerance 1.00e-04)
Best objective 1.530000000000e+02, best bound 1.530000000000e+02, gap 0.0000%

Gurobi 8.1.1 (win64, Python) logging started 12/26/19 21:29:16

Academic license - for non-commercial use only
Optimize a model with 1 rows, 4 columns and 4 nonzeros
Coefficient statistics:
  Matrix range     [1e+01, 5e+01]
  Objective range  [1e+00, 1e+00]
  Bounds range     [0e+00, 0e+00]
  RHS range        [1e+02, 1e+02]
Presolve removed 1 rows and 4 columns
Presolve time: 0.17s
Presolve: All rows and columns removed
Iteration    Objective       Primal Inf.    Dual Inf.      Time
       0    7.1428571e+00   0.000000e+00   0.000000e+00      0s

Solved in 0 iterations and 0.25 seconds
Optimal objective  7.142857143e+00
